(set-option :produce-models true); benchmark generated from python API
(set-info :status unknown)
(declare-fun l_0_0_4 () Real)
(declare-fun l_0_0_1 () Real)
(declare-fun _a_0_ () Real)
(declare-fun l_0_0_5 () Real)
(declare-fun l_0_0_2 () Real)
(declare-fun _a_1_ () Real)
(declare-fun l_0_0_6 () Real)
(declare-fun l_0_0_3 () Real)
(declare-fun _a_2_ () Real)
(declare-fun l_0_1_8 () Real)
(declare-fun l_0_1_7 () Real)
(declare-fun l_0_1_5 () Real)
(declare-fun l_0_1_4 () Real)
(declare-fun l_0_1_1 () Real)
(declare-fun l_0_1_2 () Real)
(declare-fun l_0_1_9 () Real)
(declare-fun l_0_1_6 () Real)
(declare-fun l_0_1_3 () Real)
(declare-fun l_0_2_7 () Real)
(declare-fun l_0_2_4 () Real)
(declare-fun l_0_2_1 () Real)
(declare-fun l_0_2_8 () Real)
(declare-fun l_0_2_5 () Real)
(declare-fun l_0_2_2 () Real)
(declare-fun l_0_2_3 () Real)
(declare-fun l_0_2_9 () Real)
(declare-fun l_0_2_6 () Real)
(assert
 (let ((?x36 (* l_0_0_4 l_0_0_4)))
 (= (- (- _a_0_ (* (* 1.0 l_0_0_1) l_0_0_1)) ?x36) 0.0)))
(assert
 (let ((?x72 (- (- _a_1_ (* (* 2.0 l_0_0_1) l_0_0_2)) (* (* 2.0 l_0_0_4) l_0_0_5))))
 (= ?x72 0.0)))
(assert
 (let ((?x97 (* l_0_0_6 l_0_0_6)))
 (let ((?x95 (* l_0_0_5 l_0_0_5)))
 (let ((?x58 (* l_0_0_1 l_0_0_1)))
 (let ((?x88 (+ _a_2_ ?x58)))
 (let ((?x94 (- (- ?x88 (* (* 1.0 l_0_0_2) l_0_0_2)) (* (* 1.0 l_0_0_3) l_0_0_3))))
 (= (- (- ?x94 ?x95) ?x97) 0.0)))))))
(assert
 (let ((?x68 (* (* 2.0 l_0_0_1) l_0_0_2)))
 (= ?x68 0.0)))
(assert
 (= (+ (* l_0_0_2 l_0_0_2) (* l_0_0_3 l_0_0_3)) 0.0))
(assert
 (>= l_0_0_1 0.0))
(assert
 (>= l_0_0_3 0.0))
(assert
 (>= l_0_0_4 0.0))
(assert
 (>= l_0_0_6 0.0))
(assert
 (let ((?x128 (- (* (* (* (- 2.0) _a_0_) l_0_1_1) l_0_1_2) (* (* _a_1_ l_0_1_1) l_0_1_1))))
 (let ((?x134 (- (+ ?x128 (* (* 2.0 l_0_1_4) l_0_1_5)) (* (* 2.0 l_0_1_7) l_0_1_8))))
 (= (+ ?x134 8.0) 0.0))))
(assert
 (let ((?x177 (* l_0_1_9 l_0_1_9)))
 (let ((?x175 (* l_0_1_8 l_0_1_8)))
 (let ((?x165 (- (* (- _a_0_) (+ (* l_0_1_2 l_0_1_2) (* l_0_1_3 l_0_1_3))) (* (* (* 2.0 _a_1_) l_0_1_1) l_0_1_2))))
 (let ((?x171 (+ (- ?x165 (* (* _a_2_ l_0_1_1) l_0_1_1)) (* 1.0 (* l_0_1_5 l_0_1_5)))))
 (let ((?x179 (- (- (- (+ ?x171 (* 1.0 (* l_0_1_6 l_0_1_6))) ?x175) ?x177) 1.0)))
 (= ?x179 0.0)))))))
(assert
 (let ((?x213 (* l_0_1_7 l_0_1_7)))
 (let ((?x212 (+ (* (* (- _a_0_) l_0_1_1) l_0_1_1) (* 1.0 (* l_0_1_4 l_0_1_4)))))
 (= (- (- ?x212 ?x213) 15.0) 0.0))))
(assert
 (let ((?x234 (- (* (- _a_1_) (+ (* l_0_1_2 l_0_1_2) (* l_0_1_3 l_0_1_3))) (* (* (* 2.0 _a_2_) l_0_1_1) l_0_1_2))))
 (= ?x234 0.0)))
(assert
 (= (* (- _a_2_) (+ (* l_0_1_2 l_0_1_2) (* l_0_1_3 l_0_1_3))) 0.0))
(assert
 (>= l_0_1_1 0.0))
(assert
 (>= l_0_1_3 0.0))
(assert
 (>= l_0_1_4 0.0))
(assert
 (>= l_0_1_6 0.0))
(assert
 (>= l_0_1_7 0.0))
(assert
 (>= l_0_1_9 0.0))
(assert
 (let ((?x273 (* l_0_2_7 l_0_2_7)))
 (let ((?x272 (- (+ (* (* (- _a_0_) l_0_2_1) l_0_2_1) _a_0_) (* (* 1.0 l_0_2_4) l_0_2_4))))
 (= (- ?x272 ?x273) 0.0))))
(assert
 (let ((?x293 (* (/ 124.0 125.0) _a_1_)))
 (let ((?x291 (- (* (* (* (- 2.0) _a_0_) l_0_2_1) l_0_2_2) (* (* _a_1_ l_0_2_1) l_0_2_1))))
 (let ((?x300 (- (- (+ ?x291 ?x293) (* (* 2.0 l_0_2_4) l_0_2_5)) (* (* 2.0 l_0_2_7) l_0_2_8))))
 (= ?x300 0.0)))))
(assert
 (let ((?x327 (* (/ 1.0 1000.0) _a_1_)))
 (let ((?x328 (- (* (- _a_1_) (+ (* l_0_2_2 l_0_2_2) (* l_0_2_3 l_0_2_3))) ?x327)))
 (let ((?x334 (+ (- ?x328 (* (* (* 2.0 _a_2_) l_0_2_1) l_0_2_2)) (* (/ 186.0 15625.0) _a_2_))))
 (= ?x334 0.0)))))
(assert
 (let ((?x377 (* l_0_2_9 l_0_2_9)))
 (let ((?x375 (* l_0_2_8 l_0_2_8)))
 (let ((?x367 (* (/ 15376.0 15625.0) _a_2_)))
 (let ((?x361 (* (/ 3.0 500.0) _a_1_)))
 (let ((?x359 (- (* (- _a_0_) (+ (* l_0_2_2 l_0_2_2) (* l_0_2_3 l_0_2_3))) (* (* (* 2.0 _a_1_) l_0_2_1) l_0_2_2))))
 (let ((?x371 (- (+ (- (+ ?x359 ?x361) (* (* _a_2_ l_0_2_1) l_0_2_1)) ?x367) (* (* 1.0 l_0_2_5) l_0_2_5))))
 (= (- (- (- ?x371 (* (* 1.0 l_0_2_6) l_0_2_6)) ?x375) ?x377) 0.0))))))))
(assert
 (let ((?x414 (* (/ 487.0 250000.0) _a_2_)))
 (let ((?x415 (- (* (- _a_2_) (+ (* l_0_2_2 l_0_2_2) (* l_0_2_3 l_0_2_3))) ?x414)))
 (= ?x415 0.0))))
(assert
 (= (* (/ 1.0 1000000.0) _a_2_) 0.0))
(assert
 (= (* (- (/ 3.0 250000.0)) _a_2_) 0.0))
(assert
 (>= l_0_2_1 0.0))
(assert
 (>= l_0_2_3 0.0))
(assert
 (>= l_0_2_4 0.0))
(assert
 (>= l_0_2_6 0.0))
(assert
 (>= l_0_2_7 0.0))
(assert
 (>= l_0_2_9 0.0))
(check-sat)
(get-model)